\ENCODING=ISO-8859-1
\Problem name: ilog.cplex

Maximize
 obj: 694 x(0)#0 + 778 x(1)#1 + 541 x(2)#2 + 765 x(3)#3 + 928 x(4)#4
      + 744 x(5)#5 + 628 x(6)#6 + 582 x(7)#7 + 970 x(8)#8 + 709 x(9)#9
      + 743 x(10)#10 + 1041 x(11)#11 + 1073 x(12)#12 + 1098 x(13)#13
      + 526 x(14)#14 + 522 x(15)#15 + 303 x(16)#16 + 663 x(17)#17
      + 1048 x(18)#18 + 977 x(19)#19 + 696 x(20)#20 + 780 x(21)#21
      + 915 x(22)#22 + 883 x(23)#23 + 629 x(24)#24 + 675 x(25)#25
      + 421 x(26)#26 + 681 x(27)#27 + 1197 x(28)#28 + 679 x(29)#29
      + 587 x(30)#30 + 824 x(31)#31 + 1041 x(32)#32 + 515 x(33)#33
      + 640 x(34)#34 + 497 x(35)#35 + 914 x(36)#36 + 495 x(37)#37
      + 739 x(38)#38 + 984 x(39)#39 + 801 x(40)#40 + 706 x(41)#41
      + 761 x(42)#42 + 1097 x(43)#43 + 641 x(44)#44 + 1052 x(45)#45
      + 725 x(46)#46 + 644 x(47)#47 + 689 x(48)#48 + 879 x(49)#49
      + 989 x(50)#50 + 686 x(51)#51 + 248 x(52)#52 + 603 x(53)#53
      + 829 x(54)#54 + 769 x(55)#55 + 780 x(56)#56 + 791 x(57)#57
      + 809 x(58)#58 + 668 x(59)#59 + 935 x(60)#60 + 803 x(61)#61
      + 929 x(62)#62 + 587 x(63)#63 + 1118 x(64)#64 + 575 x(65)#65
      + 614 x(66)#66 + 760 x(67)#67 + 802 x(68)#68 + 714 x(69)#69
      + 628 x(70)#70 + 910 x(71)#71 + 720 x(72)#72 + 748 x(73)#73
      + 461 x(74)#74 + 1076 x(75)#75 + 857 x(76)#76 + 655 x(77)#77
      + 804 x(78)#78 + 864 x(79)#79 + 998 x(80)#80 + 825 x(81)#81
      + 656 x(82)#82 + 920 x(83)#83 + 575 x(84)#84 + 681 x(85)#85
      + 420 x(86)#86 + 987 x(87)#87 + 966 x(88)#88 + 499 x(89)#89
      + 716 x(90)#90 + 754 x(91)#91 + 872 x(92)#92 + 724 x(93)#93
      + 708 x(94)#94 + 1071 x(95)#95 + 741 x(96)#96 + 594 x(97)#97
      + 1036 x(98)#98 + 988 x(99)#99 + 636 x(100)#100 + 797 x(101)#101
      + 492 x(102)#102 + 505 x(103)#103 + 1002 x(104)#104 + 531 x(105)#105
      + 762 x(106)#106 + 579 x(107)#107 + 700 x(108)#108 + 528 x(109)#109
      + 1064 x(110)#110 + 801 x(111)#111 + 614 x(112)#112 + 931 x(113)#113
      + 1044 x(114)#114 + 680 x(115)#115 + 817 x(116)#116 + 861 x(117)#117
      + 609 x(118)#118 + 641 x(119)#119 + 706 x(120)#120 + 669 x(121)#121
      + 565 x(122)#122 + 1095 x(123)#123 + 814 x(124)#124 + 401 x(125)#125
      + 524 x(126)#126 + 844 x(127)#127 + 1070 x(128)#128 + 681 x(129)#129
      + 1026 x(130)#130 + 747 x(131)#131 + 815 x(132)#132 + 1110 x(133)#133
      + 665 x(134)#134 + 608 x(135)#135 + 902 x(136)#136 + 518 x(137)#137
      + 440 x(138)#138 + 614 x(139)#139 + 498 x(140)#140 + 397 x(141)#141
      + 905 x(142)#142 + 744 x(143)#143 + 887 x(144)#144 + 996 x(145)#145
      + 842 x(146)#146 + 608 x(147)#147 + 631 x(148)#148 + 1033 x(149)#149
      + 545 x(150)#150 + 455 x(151)#151 + 1121 x(152)#152 + 671 x(153)#153
      + 861 x(154)#154 + 779 x(155)#155 + 874 x(156)#156 + 700 x(157)#157
      + 933 x(158)#158 + 654 x(159)#159 + 1084 x(160)#160 + 885 x(161)#161
      + 722 x(162)#162 + 670 x(163)#163 + 465 x(164)#164 + 874 x(165)#165
      + 416 x(166)#166 + 386 x(167)#167 + 562 x(168)#168 + 540 x(169)#169
      + 545 x(170)#170 + 1093 x(171)#171 + 962 x(172)#172 + 715 x(173)#173
      + 503 x(174)#174 + 1021 x(175)#175 + 1034 x(176)#176 + 662 x(177)#177
      + 862 x(178)#178 + 931 x(179)#179 + 1115 x(180)#180 + 816 x(181)#181
      + 661 x(182)#182 + 909 x(183)#183 + 748 x(184)#184 + 1056 x(185)#185
      + 616 x(186)#186 + 1206 x(187)#187 + 535 x(188)#188 + 361 x(189)#189
      + 856 x(190)#190 + 944 x(191)#191 + 1116 x(192)#192 + 921 x(193)#193
      + 724 x(194)#194 + 560 x(195)#195 + 929 x(196)#196 + 1052 x(197)#197
      + 818 x(198)#198 + 701 x(199)#199 + 812 x(200)#200 + 834 x(201)#201
      + 651 x(202)#202 + 1084 x(203)#203 + 619 x(204)#204 + 738 x(205)#205
      + 634 x(206)#206 + 852 x(207)#207 + 510 x(208)#208 + 1106 x(209)#209
      + 725 x(210)#210 + 557 x(211)#211 + 458 x(212)#212 + 498 x(213)#213
      + 951 x(214)#214 + 559 x(215)#215 + 1069 x(216)#216 + 540 x(217)#217
      + 699 x(218)#218 + 785 x(219)#219 + 597 x(220)#220 + 880 x(221)#221
      + 683 x(222)#222 + 1016 x(223)#223 + 786 x(224)#224 + 689 x(225)#225
      + 503 x(226)#226 + 758 x(227)#227 + 853 x(228)#228 + 517 x(229)#229
      + 831 x(230)#230 + 631 x(231)#231 + 693 x(232)#232 + 884 x(233)#233
      + 609 x(234)#234 + 477 x(235)#235 + 500 x(236)#236 + 686 x(237)#237
      + 510 x(238)#238 + 836 x(239)#239 + 714 x(240)#240 + 560 x(241)#241
      + 707 x(242)#242 + 453 x(243)#243 + 871 x(244)#244 + 505 x(245)#245
      + 771 x(246)#246 + 794 x(247)#247 + 1092 x(248)#248 + 697 x(249)#249
Subject To
 c1: 883 x(0)#0 + 459 x(1)#1 + 558 x(2)#2 + 603 x(3)#3 + 802 x(4)#4
     + 513 x(5)#5 + 812 x(6)#6 + 752 x(7)#7 + 715 x(8)#8 + 614 x(9)#9
     + 680 x(10)#10 + 709 x(11)#11 + 511 x(12)#12 + 955 x(13)#13 + 492 x(14)#14
     + 916 x(15)#15 + 93 x(16)#16 + 269 x(17)#17 + 634 x(18)#18 + 394 x(19)#19
     + 68 x(20)#20 + 332 x(21)#21 + 733 x(22)#22 + 892 x(23)#23 + 840 x(24)#24
     + 588 x(25)#25 + 746 x(26)#26 + 153 x(27)#27 + 966 x(28)#28 + 965 x(29)#29
     + 852 x(30)#30 + 300 x(31)#31 + 368 x(32)#32 + 155 x(33)#33 + 578 x(34)#34
     + 126 x(35)#35 + 264 x(36)#36 + 717 x(37)#37 + 690 x(38)#38 + 157 x(39)#39
     + 397 x(40)#40 + 453 x(41)#41 + 546 x(42)#42 + 879 x(43)#43 + 598 x(44)#44
     + 797 x(45)#45 + 834 x(46)#46 + 300 x(47)#47 + 105 x(48)#48 + 556 x(49)#49
     + 818 x(50)#50 + 398 x(51)#51 + 257 x(52)#52 + 258 x(53)#53 + 669 x(54)#54
     + 250 x(55)#55 + 660 x(56)#56 + 409 x(57)#57 + 819 x(58)#58 + 524 x(59)#59
     + 848 x(60)#60 + 152 x(61)#61 + 248 x(62)#62 + 68 x(63)#63 + 337 x(64)#64
     + 638 x(65)#65 + 397 x(66)#66 + 978 x(67)#67 + 403 x(68)#68 + 827 x(69)#69
     + 74 x(70)#70 + 402 x(71)#71 + 232 x(72)#72 + 334 x(73)#73 + 136 x(74)#74
     + 304 x(75)#75 + 17 x(76)#76 + 662 x(77)#77 + 160 x(78)#78 + 618 x(79)#79
     + 651 x(80)#80 + 970 x(81)#81 + 334 x(82)#82 + 8 x(83)#83 + 137 x(84)#84
     + 711 x(85)#85 + 11 x(86)#86 + 580 x(87)#87 + 868 x(88)#88 + 228 x(89)#89
     + 653 x(90)#90 + 305 x(91)#91 + 706 x(92)#92 + 631 x(93)#93 + 254 x(94)#94
     + 966 x(95)#95 + 84 x(96)#96 + 189 x(97)#97 + 375 x(98)#98 + 839 x(99)#99
     + 493 x(100)#100 + 52 x(101)#101 + 43 x(102)#102 + 783 x(103)#103
     + 227 x(104)#104 + 577 x(105)#105 + 628 x(106)#106 + 696 x(107)#107
     + 344 x(108)#108 + 936 x(109)#109 + 349 x(110)#110 + 566 x(111)#111
     + 565 x(112)#112 + 911 x(113)#113 + 980 x(114)#114 + 238 x(115)#115
     + 91 x(116)#116 + 290 x(117)#117 + 782 x(118)#118 + 90 x(119)#119
     + 929 x(120)#120 + 332 x(121)#121 + 711 x(122)#122 + 162 x(123)#123
     + 309 x(124)#124 + 866 x(125)#125 + 153 x(126)#126 + 217 x(127)#127
     + 979 x(128)#128 + 95 x(129)#129 + 448 x(130)#130 + 829 x(131)#131
     + 262 x(132)#132 + 687 x(133)#133 + 870 x(134)#134 + 188 x(135)#135
     + 769 x(136)#136 + 205 x(137)#137 + 772 x(138)#138 + 511 x(139)#139
     + 75 x(140)#140 + 91 x(141)#141 + 315 x(142)#142 + 199 x(143)#143
     + 983 x(144)#144 + 484 x(145)#145 + 133 x(146)#146 + 154 x(147)#147
     + 959 x(148)#148 + 915 x(149)#149 + 39 x(150)#150 + 348 x(151)#151
     + 844 x(152)#152 + 946 x(153)#153 + 339 x(154)#154 + 805 x(155)#155
     + 879 x(156)#156 + 34 x(157)#157 + 719 x(158)#158 + 711 x(159)#159
     + 460 x(160)#160 + 741 x(161)#161 + 503 x(162)#162 + 884 x(163)#163
     + 124 x(164)#164 + 813 x(165)#165 + 627 x(166)#166 + 329 x(167)#167
     + 7 x(168)#168 + 642 x(169)#169 + 736 x(170)#170 + 876 x(171)#171
     + 627 x(172)#172 + 78 x(173)#173 + 232 x(174)#174 + 703 x(175)#175
     + 879 x(176)#176 + 657 x(177)#177 + 121 x(178)#178 + 490 x(179)#179
     + 734 x(180)#180 + 827 x(181)#181 + 869 x(182)#182 + 514 x(183)#183
     + 452 x(184)#184 + 693 x(185)#185 + 527 x(186)#186 + 851 x(187)#187
     + 562 x(188)#188 + 166 x(189)#189 + 993 x(190)#190 + 390 x(191)#191
     + 273 x(192)#192 + 982 x(193)#193 + 237 x(194)#194 + 843 x(195)#195
     + 720 x(196)#196 + 757 x(197)#197 + 649 x(198)#198 + 814 x(199)#199
     + 702 x(200)#200 + 713 x(201)#201 + 338 x(202)#202 + 433 x(203)#203
     + 407 x(204)#204 + 937 x(205)#205 + 236 x(206)#206 + 84 x(207)#207
     + 302 x(208)#208 + 869 x(209)#209 + 79 x(210)#210 + 191 x(211)#211
     + 398 x(212)#212 + 513 x(213)#213 + 90 x(214)#214 + 340 x(215)#215
     + 897 x(216)#216 + 133 x(217)#217 + 147 x(218)#218 + 965 x(219)#219
     + 493 x(220)#220 + 774 x(221)#221 + 510 x(222)#222 + 864 x(223)#223
     + 769 x(224)#224 + 539 x(225)#225 + 298 x(226)#226 + 292 x(227)#227
     + 611 x(228)#228 + 167 x(229)#229 + x(230)#230 + 74 x(231)#231
     + 151 x(232)#232 + 177 x(233)#233 + 504 x(234)#234 + 333 x(235)#235
     + 743 x(236)#236 + 493 x(237)#237 + 265 x(238)#238 + 480 x(239)#239
     + 373 x(240)#240 + 424 x(241)#241 + 328 x(242)#242 + 17 x(243)#243
     + 857 x(244)#244 + 246 x(245)#245 + 12 x(246)#246 + 705 x(247)#247
     + 931 x(248)#248 + 459 x(249)#249 <= 62835
 c2: 417 x(0)#0 + 713 x(1)#1 + 728 x(2)#2 + 692 x(3)#3 + 839 x(4)#4
     + 259 x(5)#5 + 69 x(6)#6 + 67 x(7)#7 + 909 x(8)#8 + 558 x(9)#9
     + 44 x(10)#10 + 476 x(11)#11 + 11 x(12)#12 + 135 x(13)#13 + 489 x(14)#14
     + 195 x(15)#15 + 42 x(16)#16 + 631 x(17)#17 + 651 x(18)#18 + 817 x(19)#19
     + 749 x(20)#20 + 81 x(21)#21 + 515 x(22)#22 + 795 x(23)#23 + 836 x(24)#24
     + 96 x(25)#25 + 238 x(26)#26 + 385 x(27)#27 + 747 x(28)#28 + 315 x(29)#29
     + 75 x(30)#30 + 799 x(31)#31 + 735 x(32)#32 + 176 x(33)#33 + 243 x(34)#34
     + 301 x(35)#35 + 508 x(36)#36 + 137 x(37)#37 + 667 x(38)#38 + 390 x(39)#39
     + 479 x(40)#40 + 176 x(41)#41 + 723 x(42)#42 + 435 x(43)#43 + 39 x(44)#44
     + 916 x(45)#45 + 692 x(46)#46 + 94 x(47)#47 + 642 x(48)#48 + 665 x(49)#49
     + 371 x(50)#50 + 302 x(51)#51 + 384 x(52)#52 + 977 x(53)#53 + 992 x(54)#54
     + 925 x(55)#55 + 378 x(56)#56 + 604 x(57)#57 + 53 x(58)#58 + 771 x(59)#59
     + 137 x(60)#60 + 233 x(61)#61 + 687 x(62)#62 + 448 x(63)#63 + 614 x(64)#64
     + 946 x(65)#65 + 239 x(66)#66 + 771 x(67)#67 + 381 x(68)#68 + 344 x(69)#69
     + 829 x(70)#70 + 501 x(71)#71 + 992 x(72)#72 + 660 x(73)#73 + 808 x(74)#74
     + 277 x(75)#75 + 172 x(76)#76 + 624 x(77)#77 + 272 x(78)#78 + 138 x(79)#79
     + 870 x(80)#80 + 209 x(81)#81 + 296 x(82)#82 + 891 x(83)#83 + 596 x(84)#84
     + 846 x(85)#85 + 372 x(86)#86 + 855 x(87)#87 + 683 x(88)#88 + 925 x(89)#89
     + 343 x(90)#90 + 563 x(91)#91 + 284 x(92)#92 + 882 x(93)#93 + 737 x(94)#94
     + 334 x(95)#95 + 445 x(96)#96 + 519 x(97)#97 + 602 x(98)#98 + 517 x(99)#99
     + 745 x(100)#100 + 857 x(101)#101 + 194 x(102)#102 + 24 x(103)#103
     + 847 x(104)#104 + 264 x(105)#105 + 380 x(106)#106 + 553 x(107)#107
     + 531 x(108)#108 + 133 x(109)#109 + 814 x(110)#110 + 456 x(111)#111
     + 479 x(112)#112 + 553 x(113)#113 + 809 x(114)#114 + 545 x(115)#115
     + 607 x(116)#116 + 961 x(117)#117 + 296 x(118)#118 + 560 x(119)#119
     + 359 x(120)#120 + 419 x(121)#121 + 762 x(122)#122 + 705 x(123)#123
     + 557 x(124)#124 + 280 x(125)#125 + 192 x(126)#126 + 321 x(127)#127
     + 501 x(128)#128 + 671 x(129)#129 + 678 x(130)#130 + 44 x(131)#131
     + 689 x(132)#132 + 13 x(133)#133 + 402 x(134)#134 + 54 x(135)#135
     + 861 x(136)#136 + 454 x(137)#137 + 973 x(138)#138 + 368 x(139)#139
     + 732 x(140)#140 + 137 x(141)#141 + 508 x(142)#142 + 880 x(143)#143
     + 28 x(144)#144 + 423 x(145)#145 + 446 x(146)#146 + 7 x(147)#147
     + 137 x(148)#148 + 186 x(149)#149 + 475 x(150)#150 + 184 x(151)#151
     + 589 x(152)#152 + 654 x(153)#153 + 960 x(154)#154 + 462 x(155)#155
     + 819 x(156)#156 + 801 x(157)#157 + 164 x(158)#158 + 979 x(159)#159
     + 702 x(160)#160 + 385 x(161)#161 + 498 x(162)#162 + 871 x(163)#163
     + 332 x(164)#164 + 738 x(165)#165 + 237 x(166)#166 + 783 x(167)#167
     + 658 x(168)#168 + 436 x(169)#169 + 117 x(170)#170 + 841 x(171)#171
     + 886 x(172)#172 + 158 x(173)#173 + 84 x(174)#174 + 641 x(175)#175
     + 494 x(176)#176 + 828 x(177)#177 + 735 x(178)#178 + 573 x(179)#179
     + 636 x(180)#180 + 513 x(181)#181 + 460 x(182)#182 + 40 x(183)#183
     + 510 x(184)#184 + 478 x(185)#185 + 40 x(186)#186 + 809 x(187)#187
     + 199 x(188)#188 + 414 x(189)#189 + 766 x(190)#190 + 201 x(191)#191
     + 848 x(192)#192 + 623 x(193)#193 + 782 x(194)#194 + 71 x(195)#195
     + 988 x(196)#196 + 553 x(197)#197 + 20 x(198)#198 + 107 x(199)#199
     + 45 x(200)#200 + 627 x(201)#201 + 187 x(202)#202 + 645 x(203)#203
     + 138 x(204)#204 + 610 x(205)#205 + 573 x(206)#206 + 907 x(207)#207
     + 269 x(208)#208 + 681 x(209)#209 + 356 x(210)#210 + 92 x(211)#211
     + 350 x(212)#212 + 527 x(213)#213 + 109 x(214)#214 + 840 x(215)#215
     + 834 x(216)#216 + 643 x(217)#217 + 258 x(218)#218 + 347 x(219)#219
     + 321 x(220)#220 + 448 x(221)#221 + 484 x(222)#222 + 357 x(223)#223
     + 850 x(224)#224 + 320 x(225)#225 + 707 x(226)#226 + 499 x(227)#227
     + 534 x(228)#228 + 106 x(229)#229 + 605 x(230)#230 + 860 x(231)#231
     + 943 x(232)#232 + 187 x(233)#233 + 88 x(234)#234 + 235 x(235)#235
     + 127 x(236)#236 + 502 x(237)#237 + 383 x(238)#238 + 711 x(239)#239
     + 553 x(240)#240 + 940 x(241)#241 + 214 x(242)#242 + 195 x(243)#243
     + 488 x(244)#244 + 401 x(245)#245 + 814 x(246)#246 + 998 x(247)#247
     + 456 x(248)#248 + 412 x(249)#249 <= 61652
 c3: 862 x(0)#0 + 155 x(1)#1 + 376 x(2)#2 + 589 x(3)#3 + 112 x(4)#4
     + 983 x(5)#5 + 269 x(6)#6 + 387 x(7)#7 + 135 x(8)#8 + 28 x(9)#9
     + 581 x(10)#10 + 869 x(11)#11 + 994 x(12)#12 + 967 x(13)#13 + 688 x(14)#14
     + 252 x(15)#15 + 642 x(16)#16 + 851 x(17)#17 + 991 x(18)#18 + 434 x(19)#19
     + 458 x(20)#20 + 556 x(21)#21 + 265 x(22)#22 + 470 x(23)#23 + 131 x(24)#24
     + 763 x(25)#25 + 825 x(26)#26 + 674 x(27)#27 + 109 x(28)#28 + 29 x(29)#29
     + 850 x(30)#30 + 563 x(31)#31 + 485 x(32)#32 + 634 x(33)#33 + 214 x(34)#34
     + 582 x(35)#35 + 977 x(36)#36 + 13 x(37)#37 + 544 x(38)#38 + 482 x(39)#39
     + 620 x(40)#40 + 617 x(41)#41 + 999 x(42)#42 + 906 x(43)#43 + 954 x(44)#44
     + 830 x(45)#45 + 960 x(46)#46 + 398 x(47)#47 + 363 x(48)#48 + 286 x(49)#49
     + 896 x(50)#50 + 598 x(51)#51 + 47 x(52)#52 + 578 x(53)#53 + 366 x(54)#54
     + 951 x(55)#55 + 925 x(56)#56 + 763 x(57)#57 + 99 x(58)#58 + 473 x(59)#59
     + 300 x(60)#60 + 914 x(61)#61 + 669 x(62)#62 + 542 x(63)#63 + 518 x(64)#64
     + 199 x(65)#65 + 16 x(66)#66 + 603 x(67)#67 + 551 x(68)#68 + 18 x(69)#69
     + 765 x(70)#70 + 468 x(71)#71 + 169 x(72)#72 + 706 x(73)#73 + 926 x(74)#74
     + 944 x(75)#75 + 325 x(76)#76 + 249 x(77)#77 + 318 x(78)#78 + 481 x(79)#79
     + 449 x(80)#80 + 347 x(81)#81 + 738 x(82)#82 + 546 x(83)#83 + 5 x(84)#84
     + 314 x(85)#85 + 535 x(86)#86 + 199 x(87)#87 + 795 x(88)#88 + 948 x(89)#89
     + 75 x(90)#90 + 286 x(91)#91 + 761 x(92)#92 + 272 x(93)#93 + 684 x(94)#94
     + 543 x(95)#95 + 504 x(96)#96 + 586 x(97)#97 + 697 x(98)#98 + 580 x(99)#99
     + 539 x(100)#100 + 36 x(101)#101 + 129 x(102)#102 + 184 x(103)#103
     + 14 x(104)#104 + 592 x(105)#105 + 991 x(106)#106 + 233 x(107)#107
     + 787 x(108)#108 + 190 x(109)#109 + 739 x(110)#110 + 797 x(111)#111
     + 326 x(112)#112 + 163 x(113)#113 + 215 x(114)#114 + 958 x(115)#115
     + 724 x(116)#116 + 4 x(117)#117 + 798 x(118)#118 + 310 x(119)#119
     + 166 x(120)#120 + 317 x(121)#121 + 252 x(122)#122 + 961 x(123)#123
     + 710 x(124)#124 + 420 x(125)#125 + 773 x(126)#126 + 732 x(127)#127
     + 214 x(128)#128 + 316 x(129)#129 + 431 x(130)#130 + 641 x(131)#131
     + 787 x(132)#132 + 739 x(133)#133 + 719 x(134)#134 + 447 x(135)#135
     + 4 x(136)#136 + 282 x(137)#137 + 93 x(138)#138 + 452 x(139)#139
     + 93 x(140)#140 + 256 x(141)#141 + 78 x(142)#142 + 386 x(143)#143
     + 337 x(144)#144 + 645 x(145)#145 + 749 x(146)#146 + 802 x(147)#147
     + 204 x(148)#148 + 287 x(149)#149 + 521 x(150)#150 + 356 x(151)#151
     + 916 x(152)#152 + 959 x(153)#153 + 924 x(154)#154 + 169 x(155)#155
     + 435 x(156)#156 + 776 x(157)#157 + x(158)#158 + 23 x(159)#159
     + 333 x(160)#160 + 389 x(161)#161 + 659 x(162)#162 + 434 x(163)#163
     + 681 x(164)#164 + 199 x(165)#165 + 29 x(166)#166 + 586 x(167)#167
     + 513 x(168)#168 + 641 x(169)#169 + 390 x(170)#170 + 800 x(171)#171
     + 530 x(172)#172 + 980 x(173)#173 + 536 x(174)#174 + 264 x(175)#175
     + 283 x(176)#176 + 722 x(177)#177 + 261 x(178)#178 + 478 x(179)#179
     + 981 x(180)#180 + 435 x(181)#181 + 792 x(182)#182 + 616 x(183)#183
     + 383 x(184)#184 + 977 x(185)#185 + 116 x(186)#186 + 480 x(187)#187
     + 758 x(188)#188 + 228 x(189)#189 + 776 x(190)#190 + 766 x(191)#191
     + 774 x(192)#192 + 427 x(193)#193 + 317 x(194)#194 + 271 x(195)#195
     + 676 x(196)#196 + 961 x(197)#197 + 900 x(198)#198 + 831 x(199)#199
     + 839 x(200)#200 + 780 x(201)#201 + 539 x(202)#202 + 143 x(203)#203
     + 762 x(204)#204 + 605 x(205)#205 + 729 x(206)#206 + 655 x(207)#207
     + 418 x(208)#208 + 873 x(209)#209 + 470 x(210)#210 + 442 x(211)#211
     + 432 x(212)#212 + 425 x(213)#213 + 741 x(214)#214 + 348 x(215)#215
     + 285 x(216)#216 + 27 x(217)#217 + 884 x(218)#218 + 517 x(219)#219
     + 112 x(220)#220 + 62 x(221)#221 + 385 x(222)#222 + 594 x(223)#223
     + 370 x(224)#224 + 305 x(225)#225 + 604 x(226)#226 + 287 x(227)#227
     + 532 x(228)#228 + 897 x(229)#229 + 820 x(230)#230 + 463 x(231)#231
     + 429 x(232)#232 + 132 x(233)#233 + 459 x(234)#234 + 400 x(235)#235
     + 221 x(236)#236 + 696 x(237)#237 + 153 x(238)#238 + 527 x(239)#239
     + 152 x(240)#240 + 362 x(241)#241 + 57 x(242)#242 + 742 x(243)#243
     + 467 x(244)#244 + 400 x(245)#245 + 214 x(246)#246 + 783 x(247)#247
     + 104 x(248)#248 + 782 x(249)#249 <= 62832
 c4: 243 x(0)#0 + 263 x(1)#1 + 234 x(2)#2 + 737 x(3)#3 + 765 x(4)#4
     + 811 x(5)#5 + 408 x(6)#6 + 676 x(7)#7 + 217 x(8)#8 + 212 x(9)#9
     + 385 x(10)#10 + 118 x(11)#11 + 925 x(12)#12 + 434 x(13)#13 + 259 x(14)#14
     + 144 x(15)#15 + 335 x(16)#16 + 154 x(17)#17 + 947 x(18)#18 + 63 x(19)#19
     + 183 x(20)#20 + 823 x(21)#21 + 652 x(22)#22 + 6 x(23)#23 + 502 x(24)#24
     + 785 x(25)#25 + 144 x(26)#26 + 369 x(27)#27 + 867 x(28)#28 + 664 x(29)#29
     + 240 x(30)#30 + 465 x(31)#31 + 778 x(32)#32 + 599 x(33)#33 + 931 x(34)#34
     + 339 x(35)#35 + 963 x(36)#36 + 465 x(37)#37 + 96 x(38)#38 + 983 x(39)#39
     + 884 x(40)#40 + 133 x(41)#41 + 371 x(42)#42 + 368 x(43)#43 + 694 x(44)#44
     + 976 x(45)#45 + 153 x(46)#46 + 48 x(47)#47 + 847 x(48)#48 + 278 x(49)#49
     + 749 x(50)#50 + 914 x(51)#51 + 308 x(52)#52 + 233 x(53)#53 + 470 x(54)#54
     + 405 x(55)#55 + 245 x(56)#56 + 109 x(57)#57 + 750 x(58)#58 + 43 x(59)#59
     + 542 x(60)#60 + 409 x(61)#61 + 547 x(62)#62 + 85 x(63)#63 + 801 x(64)#64
     + 694 x(65)#65 + 83 x(66)#66 + 428 x(67)#67 + 981 x(68)#68 + 116 x(69)#69
     + 402 x(70)#70 + 983 x(71)#71 + 828 x(72)#72 + 497 x(73)#73 + 3 x(74)#74
     + 560 x(75)#75 + 791 x(76)#76 + 761 x(77)#77 + 464 x(78)#78 + 397 x(79)#79
     + 939 x(80)#80 + 773 x(81)#81 + 345 x(82)#82 + 320 x(83)#83 + 432 x(84)#84
     + 115 x(85)#85 + 382 x(86)#86 + 941 x(87)#87 + 293 x(88)#88 + 73 x(89)#89
     + 717 x(90)#90 + 302 x(91)#91 + 421 x(92)#92 + 945 x(93)#93 + 35 x(94)#94
     + 969 x(95)#95 + 119 x(96)#96 + 610 x(97)#97 + 874 x(98)#98 + 660 x(99)#99
     + 89 x(100)#100 + 996 x(101)#101 + 678 x(102)#102 + 454 x(103)#103
     + 770 x(104)#104 + 578 x(105)#105 + 96 x(106)#106 + 5 x(107)#107
     + 226 x(108)#108 + 205 x(109)#109 + 694 x(110)#110 + 991 x(111)#111
     + 50 x(112)#112 + 997 x(113)#113 + 921 x(114)#114 + 825 x(115)#115
     + 570 x(116)#116 + 343 x(117)#117 + 389 x(118)#118 + 553 x(119)#119
     + 615 x(120)#120 + 628 x(121)#121 + 246 x(122)#122 + 659 x(123)#123
     + 105 x(124)#124 + 175 x(125)#125 + 470 x(126)#126 + 694 x(127)#127
     + 805 x(128)#128 + 236 x(129)#129 + 865 x(130)#130 + 396 x(131)#131
     + 280 x(132)#132 + 849 x(133)#133 + 733 x(134)#134 + 724 x(135)#135
     + 694 x(136)#136 + 310 x(137)#137 + 2 x(138)#138 + 952 x(139)#139
     + 885 x(140)#140 + 164 x(141)#141 + 805 x(142)#142 + 717 x(143)#143
     + 653 x(144)#144 + 903 x(145)#145 + 804 x(146)#146 + 606 x(147)#147
     + 155 x(148)#148 + 531 x(149)#149 + 873 x(150)#150 + 422 x(151)#151
     + 442 x(152)#152 + 624 x(153)#153 + 143 x(154)#154 + 98 x(155)#155
     + 305 x(156)#156 + 212 x(157)#157 + 542 x(158)#158 + 387 x(159)#159
     + 731 x(160)#160 + 588 x(161)#161 + 847 x(162)#162 + 164 x(163)#163
     + 657 x(164)#164 + 395 x(165)#165 + 597 x(166)#166 + 135 x(167)#167
     + 615 x(168)#168 + 919 x(169)#169 + 449 x(170)#170 + 48 x(171)#171
     + 73 x(172)#172 + 542 x(173)#173 + 212 x(174)#174 + 711 x(175)#175
     + 947 x(176)#176 + 267 x(177)#177 + 627 x(178)#178 + 774 x(179)#179
     + 427 x(180)#180 + 504 x(181)#181 + 444 x(182)#182 + 590 x(183)#183
     + 808 x(184)#184 + 731 x(185)#185 + 754 x(186)#186 + 930 x(187)#187
     + 150 x(188)#188 + 145 x(189)#189 + 90 x(190)#190 + 960 x(191)#191
     + 960 x(192)#192 + 507 x(193)#193 + 523 x(194)#194 + 659 x(195)#195
     + 437 x(196)#196 + 794 x(197)#197 + 456 x(198)#198 + 354 x(199)#199
     + 278 x(200)#200 + 987 x(201)#201 + 702 x(202)#202 + 878 x(203)#203
     + 973 x(204)#204 + 379 x(205)#205 + 252 x(206)#206 + 661 x(207)#207
     + 934 x(208)#208 + 529 x(209)#209 + 556 x(210)#210 + 74 x(211)#211
     + 346 x(212)#212 + 63 x(213)#213 + 933 x(214)#214 + 577 x(215)#215
     + 935 x(216)#216 + 446 x(217)#217 + 262 x(218)#218 + 707 x(219)#219
     + 576 x(220)#220 + 572 x(221)#221 + 483 x(222)#222 + 878 x(223)#223
     + 126 x(224)#224 + 959 x(225)#225 + 599 x(226)#226 + 441 x(227)#227
     + 484 x(228)#228 + 718 x(229)#229 + 485 x(230)#230 + 59 x(231)#231
     + 923 x(232)#232 + 995 x(233)#233 + 95 x(234)#234 + 657 x(235)#235
     + 346 x(236)#236 + 763 x(237)#237 + 715 x(238)#238 + 809 x(239)#239
     + 340 x(240)#240 + 417 x(241)#241 + 137 x(242)#242 + 721 x(243)#243
     + 679 x(244)#244 + 214 x(245)#245 + 324 x(246)#246 + 454 x(247)#247
     + 847 x(248)#248 + 161 x(249)#249 <= 64454
 c5: 691 x(0)#0 + 382 x(1)#1 + 7 x(2)#2 + 302 x(3)#3 + 703 x(4)#4 + 156 x(5)#5
     + 50 x(6)#6 + 737 x(7)#7 + 619 x(8)#8 + 311 x(9)#9 + 541 x(10)#10
     + 582 x(11)#11 + 781 x(12)#12 + 714 x(13)#13 + 590 x(14)#14 + 480 x(15)#15
     + 38 x(16)#16 + 769 x(17)#17 + 672 x(18)#18 + 989 x(19)#19 + 619 x(20)#20
     + 640 x(21)#21 + 621 x(22)#22 + 555 x(23)#23 + 680 x(24)#24 + 27 x(25)#25
     + 146 x(26)#26 + 710 x(27)#27 + 826 x(28)#28 + 381 x(29)#29 + 833 x(30)#30
     + 861 x(31)#31 + 834 x(32)#32 + 770 x(33)#33 + 138 x(34)#34 + 583 x(35)#35
     + 496 x(36)#36 + 827 x(37)#37 + 127 x(38)#38 + 760 x(39)#39 + 965 x(40)#40
     + 164 x(41)#41 + 233 x(42)#42 + 476 x(43)#43 + 126 x(44)#44 + 103 x(45)#45
     + 814 x(46)#46 + 336 x(47)#47 + 778 x(48)#48 + 303 x(49)#49 + 471 x(50)#50
     + 563 x(51)#51 + 130 x(52)#52 + 500 x(53)#53 + 571 x(54)#54 + 391 x(55)#55
     + 875 x(56)#56 + 9 x(57)#57 + 813 x(58)#58 + 815 x(59)#59 + 565 x(60)#60
     + 231 x(61)#61 + 909 x(62)#62 + 352 x(63)#63 + 857 x(64)#64 + 159 x(65)#65
     + 154 x(66)#66 + 175 x(67)#67 + 989 x(68)#68 + 938 x(69)#69 + 475 x(70)#70
     + 542 x(71)#71 + 95 x(72)#72 + 601 x(73)#73 + 64 x(74)#74 + 998 x(75)#75
     + 762 x(76)#76 + 27 x(77)#77 + 860 x(78)#78 + 820 x(79)#79 + 867 x(80)#80
     + 210 x(81)#81 + 982 x(82)#82 + 499 x(83)#83 + 874 x(84)#84 + 213 x(85)#85
     + 172 x(86)#86 + 501 x(87)#87 + 410 x(88)#88 + 83 x(89)#89 + 854 x(90)#90
     + 697 x(91)#91 + 127 x(92)#92 + 731 x(93)#93 + 123 x(94)#94 + 339 x(95)#95
     + 698 x(96)#96 + 238 x(97)#97 + 279 x(98)#98 + 582 x(99)#99
     + 70 x(100)#100 + 626 x(101)#101 + 247 x(102)#102 + 954 x(103)#103
     + 999 x(104)#104 + 389 x(105)#105 + 954 x(106)#106 + 958 x(107)#107
     + 384 x(108)#108 + 70 x(109)#109 + 791 x(110)#110 + 548 x(111)#111
     + 161 x(112)#112 + 379 x(113)#113 + 254 x(114)#114 + 487 x(115)#115
     + 698 x(116)#116 + 921 x(117)#117 + 672 x(118)#118 + 53 x(119)#119
     + 115 x(120)#120 + 832 x(121)#121 + 630 x(122)#122 + 572 x(123)#123
     + 319 x(124)#124 + 90 x(125)#125 + 251 x(126)#126 + 350 x(127)#127
     + 668 x(128)#128 + 327 x(129)#129 + 688 x(130)#130 + 748 x(131)#131
     + 11 x(132)#132 + 810 x(133)#133 + 555 x(134)#134 + 924 x(135)#135
     + 511 x(136)#136 + 161 x(137)#137 + 166 x(138)#138 + 442 x(139)#139
     + 608 x(140)#140 + 367 x(141)#141 + 632 x(142)#142 + 960 x(143)#143
     + 357 x(144)#144 + 633 x(145)#145 + 287 x(146)#146 + 725 x(147)#147
     + 371 x(148)#148 + 787 x(149)#149 + 121 x(150)#150 + 38 x(151)#151
     + 592 x(152)#152 + 8 x(153)#153 + 845 x(154)#154 + 560 x(155)#155
     + 333 x(156)#156 + 371 x(157)#157 + 868 x(158)#158 + 505 x(159)#159
     + 847 x(160)#160 + 449 x(161)#161 + 902 x(162)#162 + 361 x(163)#163
     + 309 x(164)#164 + 659 x(165)#165 + 78 x(166)#166 + 43 x(167)#167
     + 534 x(168)#168 + 20 x(169)#169 + 845 x(170)#170 + 675 x(171)#171
     + 274 x(172)#172 + 606 x(173)#173 + 207 x(174)#174 + 392 x(175)#175
     + 989 x(176)#176 + 661 x(177)#177 + 656 x(178)#178 + 158 x(179)#179
     + 347 x(180)#180 + 520 x(181)#181 + 293 x(182)#182 + 578 x(183)#183
     + 279 x(184)#184 + 532 x(185)#185 + 618 x(186)#186 + 597 x(187)#187
     + 122 x(188)#188 + 351 x(189)#189 + 278 x(190)#190 + 284 x(191)#191
     + 923 x(192)#192 + 28 x(193)#193 + 89 x(194)#194 + 85 x(195)#195
     + 682 x(196)#196 + 659 x(197)#197 + 689 x(198)#198 + 729 x(199)#199
     + 45 x(200)#200 + 702 x(201)#201 + 782 x(202)#202 + 930 x(203)#203
     + 375 x(204)#204 + 724 x(205)#205 + 836 x(206)#206 + 467 x(207)#207
     + 131 x(208)#208 + 854 x(209)#209 + 586 x(210)#210 + 939 x(211)#211
     + 540 x(212)#212 + 387 x(213)#213 + 461 x(214)#214 + 384 x(215)#215
     + 922 x(216)#216 + 723 x(217)#217 + 646 x(218)#218 + 754 x(219)#219
     + 788 x(220)#220 + 661 x(221)#221 + 819 x(222)#222 + 294 x(223)#223
     + 889 x(224)#224 + 657 x(225)#225 + 296 x(226)#226 + 791 x(227)#227
     + 236 x(228)#228 + 85 x(229)#229 + 595 x(230)#230 + 989 x(231)#231
     + 90 x(232)#232 + 880 x(233)#233 + 419 x(234)#234 + 685 x(235)#235
     + 661 x(236)#236 + 744 x(237)#237 + 334 x(238)#238 + 243 x(239)#239
     + 926 x(240)#240 + 4 x(241)#241 + 717 x(242)#242 + 426 x(243)#243
     + 85 x(244)#244 + 433 x(245)#245 + 928 x(246)#246 + 295 x(247)#247
     + 872 x(248)#248 + 69 x(249)#249 <= 63618
Bounds
 0 <= x(0)#0 <= 1
 0 <= x(1)#1 <= 1
 0 <= x(2)#2 <= 1
 0 <= x(3)#3 <= 1
 0 <= x(4)#4 <= 1
 0 <= x(5)#5 <= 1
 0 <= x(6)#6 <= 1
 0 <= x(7)#7 <= 1
 0 <= x(8)#8 <= 1
 0 <= x(9)#9 <= 1
 0 <= x(10)#10 <= 1
 0 <= x(11)#11 <= 1
 0 <= x(12)#12 <= 1
 0 <= x(13)#13 <= 1
 0 <= x(14)#14 <= 1
 0 <= x(15)#15 <= 1
 0 <= x(16)#16 <= 1
 0 <= x(17)#17 <= 1
 0 <= x(18)#18 <= 1
 0 <= x(19)#19 <= 1
 0 <= x(20)#20 <= 1
 0 <= x(21)#21 <= 1
 0 <= x(22)#22 <= 1
 0 <= x(23)#23 <= 1
 0 <= x(24)#24 <= 1
 0 <= x(25)#25 <= 1
 0 <= x(26)#26 <= 1
 0 <= x(27)#27 <= 1
 0 <= x(28)#28 <= 1
 0 <= x(29)#29 <= 1
 0 <= x(30)#30 <= 1
 0 <= x(31)#31 <= 1
 0 <= x(32)#32 <= 1
 0 <= x(33)#33 <= 1
 0 <= x(34)#34 <= 1
 0 <= x(35)#35 <= 1
 0 <= x(36)#36 <= 1
 0 <= x(37)#37 <= 1
 0 <= x(38)#38 <= 1
 0 <= x(39)#39 <= 1
 0 <= x(40)#40 <= 1
 0 <= x(41)#41 <= 1
 0 <= x(42)#42 <= 1
 0 <= x(43)#43 <= 1
 0 <= x(44)#44 <= 1
 0 <= x(45)#45 <= 1
 0 <= x(46)#46 <= 1
 0 <= x(47)#47 <= 1
 0 <= x(48)#48 <= 1
 0 <= x(49)#49 <= 1
 0 <= x(50)#50 <= 1
 0 <= x(51)#51 <= 1
 0 <= x(52)#52 <= 1
 0 <= x(53)#53 <= 1
 0 <= x(54)#54 <= 1
 0 <= x(55)#55 <= 1
 0 <= x(56)#56 <= 1
 0 <= x(57)#57 <= 1
 0 <= x(58)#58 <= 1
 0 <= x(59)#59 <= 1
 0 <= x(60)#60 <= 1
 0 <= x(61)#61 <= 1
 0 <= x(62)#62 <= 1
 0 <= x(63)#63 <= 1
 0 <= x(64)#64 <= 1
 0 <= x(65)#65 <= 1
 0 <= x(66)#66 <= 1
 0 <= x(67)#67 <= 1
 0 <= x(68)#68 <= 1
 0 <= x(69)#69 <= 1
 0 <= x(70)#70 <= 1
 0 <= x(71)#71 <= 1
 0 <= x(72)#72 <= 1
 0 <= x(73)#73 <= 1
 0 <= x(74)#74 <= 1
 0 <= x(75)#75 <= 1
 0 <= x(76)#76 <= 1
 0 <= x(77)#77 <= 1
 0 <= x(78)#78 <= 1
 0 <= x(79)#79 <= 1
 0 <= x(80)#80 <= 1
 0 <= x(81)#81 <= 1
 0 <= x(82)#82 <= 1
 0 <= x(83)#83 <= 1
 0 <= x(84)#84 <= 1
 0 <= x(85)#85 <= 1
 0 <= x(86)#86 <= 1
 0 <= x(87)#87 <= 1
 0 <= x(88)#88 <= 1
 0 <= x(89)#89 <= 1
 0 <= x(90)#90 <= 1
 0 <= x(91)#91 <= 1
 0 <= x(92)#92 <= 1
 0 <= x(93)#93 <= 1
 0 <= x(94)#94 <= 1
 0 <= x(95)#95 <= 1
 0 <= x(96)#96 <= 1
 0 <= x(97)#97 <= 1
 0 <= x(98)#98 <= 1
 0 <= x(99)#99 <= 1
 0 <= x(100)#100 <= 1
 0 <= x(101)#101 <= 1
 0 <= x(102)#102 <= 1
 0 <= x(103)#103 <= 1
 0 <= x(104)#104 <= 1
 0 <= x(105)#105 <= 1
 0 <= x(106)#106 <= 1
 0 <= x(107)#107 <= 1
 0 <= x(108)#108 <= 1
 0 <= x(109)#109 <= 1
 0 <= x(110)#110 <= 1
 0 <= x(111)#111 <= 1
 0 <= x(112)#112 <= 1
 0 <= x(113)#113 <= 1
 0 <= x(114)#114 <= 1
 0 <= x(115)#115 <= 1
 0 <= x(116)#116 <= 1
 0 <= x(117)#117 <= 1
 0 <= x(118)#118 <= 1
 0 <= x(119)#119 <= 1
 0 <= x(120)#120 <= 1
 0 <= x(121)#121 <= 1
 0 <= x(122)#122 <= 1
 0 <= x(123)#123 <= 1
 0 <= x(124)#124 <= 1
 0 <= x(125)#125 <= 1
 0 <= x(126)#126 <= 1
 0 <= x(127)#127 <= 1
 0 <= x(128)#128 <= 1
 0 <= x(129)#129 <= 1
 0 <= x(130)#130 <= 1
 0 <= x(131)#131 <= 1
 0 <= x(132)#132 <= 1
 0 <= x(133)#133 <= 1
 0 <= x(134)#134 <= 1
 0 <= x(135)#135 <= 1
 0 <= x(136)#136 <= 1
 0 <= x(137)#137 <= 1
 0 <= x(138)#138 <= 1
 0 <= x(139)#139 <= 1
 0 <= x(140)#140 <= 1
 0 <= x(141)#141 <= 1
 0 <= x(142)#142 <= 1
 0 <= x(143)#143 <= 1
 0 <= x(144)#144 <= 1
 0 <= x(145)#145 <= 1
 0 <= x(146)#146 <= 1
 0 <= x(147)#147 <= 1
 0 <= x(148)#148 <= 1
 0 <= x(149)#149 <= 1
 0 <= x(150)#150 <= 1
 0 <= x(151)#151 <= 1
 0 <= x(152)#152 <= 1
 0 <= x(153)#153 <= 1
 0 <= x(154)#154 <= 1
 0 <= x(155)#155 <= 1
 0 <= x(156)#156 <= 1
 0 <= x(157)#157 <= 1
 0 <= x(158)#158 <= 1
 0 <= x(159)#159 <= 1
 0 <= x(160)#160 <= 1
 0 <= x(161)#161 <= 1
 0 <= x(162)#162 <= 1
 0 <= x(163)#163 <= 1
 0 <= x(164)#164 <= 1
 0 <= x(165)#165 <= 1
 0 <= x(166)#166 <= 1
 0 <= x(167)#167 <= 1
 0 <= x(168)#168 <= 1
 0 <= x(169)#169 <= 1
 0 <= x(170)#170 <= 1
 0 <= x(171)#171 <= 1
 0 <= x(172)#172 <= 1
 0 <= x(173)#173 <= 1
 0 <= x(174)#174 <= 1
 0 <= x(175)#175 <= 1
 0 <= x(176)#176 <= 1
 0 <= x(177)#177 <= 1
 0 <= x(178)#178 <= 1
 0 <= x(179)#179 <= 1
 0 <= x(180)#180 <= 1
 0 <= x(181)#181 <= 1
 0 <= x(182)#182 <= 1
 0 <= x(183)#183 <= 1
 0 <= x(184)#184 <= 1
 0 <= x(185)#185 <= 1
 0 <= x(186)#186 <= 1
 0 <= x(187)#187 <= 1
 0 <= x(188)#188 <= 1
 0 <= x(189)#189 <= 1
 0 <= x(190)#190 <= 1
 0 <= x(191)#191 <= 1
 0 <= x(192)#192 <= 1
 0 <= x(193)#193 <= 1
 0 <= x(194)#194 <= 1
 0 <= x(195)#195 <= 1
 0 <= x(196)#196 <= 1
 0 <= x(197)#197 <= 1
 0 <= x(198)#198 <= 1
 0 <= x(199)#199 <= 1
 0 <= x(200)#200 <= 1
 0 <= x(201)#201 <= 1
 0 <= x(202)#202 <= 1
 0 <= x(203)#203 <= 1
 0 <= x(204)#204 <= 1
 0 <= x(205)#205 <= 1
 0 <= x(206)#206 <= 1
 0 <= x(207)#207 <= 1
 0 <= x(208)#208 <= 1
 0 <= x(209)#209 <= 1
 0 <= x(210)#210 <= 1
 0 <= x(211)#211 <= 1
 0 <= x(212)#212 <= 1
 0 <= x(213)#213 <= 1
 0 <= x(214)#214 <= 1
 0 <= x(215)#215 <= 1
 0 <= x(216)#216 <= 1
 0 <= x(217)#217 <= 1
 0 <= x(218)#218 <= 1
 0 <= x(219)#219 <= 1
 0 <= x(220)#220 <= 1
 0 <= x(221)#221 <= 1
 0 <= x(222)#222 <= 1
 0 <= x(223)#223 <= 1
 0 <= x(224)#224 <= 1
 0 <= x(225)#225 <= 1
 0 <= x(226)#226 <= 1
 0 <= x(227)#227 <= 1
 0 <= x(228)#228 <= 1
 0 <= x(229)#229 <= 1
 0 <= x(230)#230 <= 1
 0 <= x(231)#231 <= 1
 0 <= x(232)#232 <= 1
 0 <= x(233)#233 <= 1
 0 <= x(234)#234 <= 1
 0 <= x(235)#235 <= 1
 0 <= x(236)#236 <= 1
 0 <= x(237)#237 <= 1
 0 <= x(238)#238 <= 1
 0 <= x(239)#239 <= 1
 0 <= x(240)#240 <= 1
 0 <= x(241)#241 <= 1
 0 <= x(242)#242 <= 1
 0 <= x(243)#243 <= 1
 0 <= x(244)#244 <= 1
 0 <= x(245)#245 <= 1
 0 <= x(246)#246 <= 1
 0 <= x(247)#247 <= 1
 0 <= x(248)#248 <= 1
 0 <= x(249)#249 <= 1
Generals
 x(0)#0  x(1)#1  x(2)#2  x(3)#3  x(4)#4  x(5)#5  x(6)#6  x(7)#7  x(8)#8 
 x(9)#9  x(10)#10  x(11)#11  x(12)#12  x(13)#13  x(14)#14  x(15)#15  x(16)#16 
 x(17)#17  x(18)#18  x(19)#19  x(20)#20  x(21)#21  x(22)#22  x(23)#23 
 x(24)#24  x(25)#25  x(26)#26  x(27)#27  x(28)#28  x(29)#29  x(30)#30 
 x(31)#31  x(32)#32  x(33)#33  x(34)#34  x(35)#35  x(36)#36  x(37)#37 
 x(38)#38  x(39)#39  x(40)#40  x(41)#41  x(42)#42  x(43)#43  x(44)#44 
 x(45)#45  x(46)#46  x(47)#47  x(48)#48  x(49)#49  x(50)#50  x(51)#51 
 x(52)#52  x(53)#53  x(54)#54  x(55)#55  x(56)#56  x(57)#57  x(58)#58 
 x(59)#59  x(60)#60  x(61)#61  x(62)#62  x(63)#63  x(64)#64  x(65)#65 
 x(66)#66  x(67)#67  x(68)#68  x(69)#69  x(70)#70  x(71)#71  x(72)#72 
 x(73)#73  x(74)#74  x(75)#75  x(76)#76  x(77)#77  x(78)#78  x(79)#79 
 x(80)#80  x(81)#81  x(82)#82  x(83)#83  x(84)#84  x(85)#85  x(86)#86 
 x(87)#87  x(88)#88  x(89)#89  x(90)#90  x(91)#91  x(92)#92  x(93)#93 
 x(94)#94  x(95)#95  x(96)#96  x(97)#97  x(98)#98  x(99)#99  x(100)#100 
 x(101)#101  x(102)#102  x(103)#103  x(104)#104  x(105)#105  x(106)#106 
 x(107)#107  x(108)#108  x(109)#109  x(110)#110  x(111)#111  x(112)#112 
 x(113)#113  x(114)#114  x(115)#115  x(116)#116  x(117)#117  x(118)#118 
 x(119)#119  x(120)#120  x(121)#121  x(122)#122  x(123)#123  x(124)#124 
 x(125)#125  x(126)#126  x(127)#127  x(128)#128  x(129)#129  x(130)#130 
 x(131)#131  x(132)#132  x(133)#133  x(134)#134  x(135)#135  x(136)#136 
 x(137)#137  x(138)#138  x(139)#139  x(140)#140  x(141)#141  x(142)#142 
 x(143)#143  x(144)#144  x(145)#145  x(146)#146  x(147)#147  x(148)#148 
 x(149)#149  x(150)#150  x(151)#151  x(152)#152  x(153)#153  x(154)#154 
 x(155)#155  x(156)#156  x(157)#157  x(158)#158  x(159)#159  x(160)#160 
 x(161)#161  x(162)#162  x(163)#163  x(164)#164  x(165)#165  x(166)#166 
 x(167)#167  x(168)#168  x(169)#169  x(170)#170  x(171)#171  x(172)#172 
 x(173)#173  x(174)#174  x(175)#175  x(176)#176  x(177)#177  x(178)#178 
 x(179)#179  x(180)#180  x(181)#181  x(182)#182  x(183)#183  x(184)#184 
 x(185)#185  x(186)#186  x(187)#187  x(188)#188  x(189)#189  x(190)#190 
 x(191)#191  x(192)#192  x(193)#193  x(194)#194  x(195)#195  x(196)#196 
 x(197)#197  x(198)#198  x(199)#199  x(200)#200  x(201)#201  x(202)#202 
 x(203)#203  x(204)#204  x(205)#205  x(206)#206  x(207)#207  x(208)#208 
 x(209)#209  x(210)#210  x(211)#211  x(212)#212  x(213)#213  x(214)#214 
 x(215)#215  x(216)#216  x(217)#217  x(218)#218  x(219)#219  x(220)#220 
 x(221)#221  x(222)#222  x(223)#223  x(224)#224  x(225)#225  x(226)#226 
 x(227)#227  x(228)#228  x(229)#229  x(230)#230  x(231)#231  x(232)#232 
 x(233)#233  x(234)#234  x(235)#235  x(236)#236  x(237)#237  x(238)#238 
 x(239)#239  x(240)#240  x(241)#241  x(242)#242  x(243)#243  x(244)#244 
 x(245)#245  x(246)#246  x(247)#247  x(248)#248  x(249)#249 
End
